max_width = 39;
n_blocks = 29;
width = [15, 5, 5, 4, 4, 5, 5, 4, 3, 5, 4, 3, 4, 3, 5, 3, 5, 3, 4, 3, 4, 5, 3, 4, 3, 5, 3, 4, 3];
height = [39, 18, 13, 16, 15, 11, 10, 12, 15, 8, 9, 11, 8, 10, 6, 9, 5, 8, 6, 7, 5, 4, 6, 4, 5, 3, 4, 3, 3];
